50
17251

741 557
240 980
372 779
907 870
427 138
135 457
590 639
624 17
485 582
830 525
669 84
626 127
431 834
762 24
545 324
902 200
463 96
670 408
250 19
668 886
291 102
33 994
186 942
637 126
385 356
890 767
582 314
787 143
460 885
702 481
564 292
709 742
845 355
542 645
439 954
410 197
616 635
604 674
312 145
301 692
679 564
77 894
885 655
598 462
315 581
834 580
857 728
744 545
455 391
34 746
